grid 25 2 40 99999
2 2 2 2 2 2 2 2 2 2 2 2 2 2 2 2 2 2 2 2 2 2 2 2 2
2 7 15 0 4
0 0 71
0 1 54
1 0 96
1 1 51
2 1 17 0 4
0 0 11
0 1 33
1 0 79
1 1 69
2 0 2 0 4
0 0 66
0 1 52
1 0 82
1 1 77
2 2 12 0 4
0 0 84
0 1 16
1 0 6
1 1 30
2 11 20 0 4
0 0 75
0 1 5
1 0 33
1 1 10
2 0 19 0 4
0 0 47
0 1 90
1 0 48
1 1 84
2 1 22 0 4
0 0 62
0 1 55
1 0 67
1 1 2
2 2 7 0 4
0 0 16
0 1 25
1 0 7
1 1 56
2 1 15 0 4
0 0 47
0 1 20
1 0 61
1 1 70
2 5 19 0 4
0 0 94
0 1 1
1 0 5
1 1 47
2 4 8 0 4
0 0 91
0 1 17
1 0 43
1 1 27
2 7 9 0 4
0 0 89
0 1 97
1 0 20
1 1 97
2 9 16 0 4
0 0 79
0 1 16
1 0 81
1 1 65
2 8 9 0 4
0 0 31
0 1 12
1 0 87
1 1 32
2 3 13 0 4
0 0 70
0 1 38
1 0 41
1 1 68
2 7 22 0 4
0 0 72
0 1 13
1 0 65
1 1 35
2 14 24 0 4
0 0 34
0 1 15
1 0 51
1 1 33
2 6 14 0 4
0 0 82
0 1 40
1 0 55
1 1 84
2 6 11 0 4
0 0 75
0 1 64
1 0 99
1 1 88
2 4 12 0 4
0 0 91
0 1 12
1 0 45
1 1 99
2 3 20 0 4
0 0 96
0 1 16
1 0 71
1 1 31
2 11 19 0 4
0 0 93
0 1 1
1 0 37
1 1 7
2 10 23 0 4
0 0 18
0 1 31
1 0 39
1 1 86
2 10 21 0 4
0 0 8
0 1 11
1 0 33
1 1 72
2 5 17 0 4
0 0 56
0 1 2
1 0 19
1 1 49
2 15 16 0 4
0 0 71
0 1 54
1 0 73
1 1 26
2 5 22 0 4
0 0 67
0 1 59
1 0 67
1 1 14
2 5 20 0 4
0 0 77
0 1 12
1 0 45
1 1 1
2 17 23 0 4
0 0 96
0 1 30
1 0 31
1 1 94
2 12 24 0 4
0 0 67
0 1 10
1 0 91
1 1 37
2 1 10 0 4
0 0 48
0 1 74
1 0 72
1 1 71
2 18 21 0 4
0 0 20
0 1 18
1 0 50
1 1 33
2 0 22 0 4
0 0 54
0 1 37
1 0 47
1 1 79
2 3 17 0 4
0 0 13
0 1 75
1 0 28
1 1 1
2 16 18 0 4
0 0 94
0 1 55
1 0 96
1 1 46
2 0 24 0 4
0 0 37
0 1 28
1 0 69
1 1 5
2 13 23 0 4
0 0 1
0 1 87
1 0 66
1 1 63
2 2 8 0 4
0 0 42
0 1 94
1 0 20
1 1 89
2 15 21 0 4
0 0 1
0 1 81
1 0 65
1 1 0
2 14 19 0 4
0 0 85
0 1 2
1 0 74
1 1 78
